p cnf 86 269
-3 -1 0
-3 -2 0
1 2 3 0
-4 -5 -6 0
4 5 -6 0
-4 5 6 0
4 -5 6 0
8 6 0
8 -7 0
-6 7 -8 0
-11 9 0
-11 10 0
-9 -10 11 0
13 11 0
13 12 0
-11 -12 -13 0
-15 -13 0
-15 14 0
13 -14 15 0
-15 14 -16 0
15 -14 -16 0
-15 -14 16 0
15 14 16 0
17 -8 0
17 16 0
8 -16 -17 0
3 -17 -18 0
-3 17 -18 0
3 17 18 0
-3 -17 18 0
21 -19 0
21 -20 0
19 20 -21 0
-22 -12 0
-22 1 0
12 -1 22 0
-23 19 0
-23 1 0
-19 -1 23 0
24 -22 0
24 23 0
22 -23 -24 0
-26 25 0
-26 -25 0
-27 -24 0
-27 -26 0
24 26 27 0
-29 -27 0
-29 28 0
27 -28 29 0
30 -19 0
30 -1 0
19 1 -30 0
-31 9 0
-31 30 0
-9 -30 31 0
32 -14 0
32 -23 0
14 23 -32 0
-33 31 0
-33 32 0
-31 -32 33 0
34 29 0
34 33 0
-29 -33 -34 0
35 7 0
35 20 0
-7 -20 -35 0
27 -25 -36 0
-27 25 -36 0
27 25 36 0
-27 -25 36 0
37 -20 0
37 -26 0
20 26 -37 0
38 -36 0
38 37 0
36 -37 -38 0
-39 -7 0
-39 4 0
7 -4 39 0
-39 31 -40 0
39 -31 -40 0
-39 -31 40 0
39 31 40 0
-41 -38 0
-41 40 0
38 -40 41 0
42 -35 0
42 41 0
35 -41 -42 0
43 34 0
43 42 0
-34 -42 -43 0
21 43 -44 0
-21 -43 -44 0
21 -43 44 0
-21 43 44 0
-45 -30 0
-45 4 0
30 -4 45 0
-39 -30 -46 0
39 30 -46 0
-39 30 46 0
39 -30 46 0
45 -46 -47 0
-45 46 -47 0
45 46 47 0
-45 -46 47 0
1 22 -48 0
-1 -22 -48 0
1 -22 48 0
-1 22 48 0
47 -48 -49 0
-47 48 -49 0
47 48 49 0
-47 -48 49 0
44 -49 -50 0
-44 49 -50 0
44 49 50 0
-44 -49 50 0
51 -18 0
51 -50 0
18 50 -51 0
-39 30 -52 0
39 -30 -52 0
-39 -30 52 0
39 30 52 0
-53 -52 0
-53 -32 0
52 32 53 0
-54 23 0
-54 -14 0
-23 14 54 0
-55 -54 0
-55 7 0
54 -7 55 0
56 -37 -57 0
-56 37 -57 0
56 37 57 0
-56 -37 57 0
15 -56 -58 0
-15 56 -58 0
15 56 58 0
-15 -56 58 0
59 -57 0
59 58 0
57 -58 -59 0
-60 -23 0
-60 -6 0
23 6 60 0
1 -12 -61 0
-1 12 -61 0
1 12 61 0
-1 -12 61 0
63 61 0
63 -62 0
-61 62 -63 0
-64 61 0
-64 63 0
-61 -63 64 0
64 -56 -65 0
-64 56 -65 0
64 56 65 0
-64 -56 65 0
-66 60 0
-66 -65 0
-60 65 66 0
-13 67 -68 0
13 -67 -68 0
-13 -67 68 0
13 67 68 0
66 68 -69 0
-66 -68 -69 0
66 -68 69 0
-66 68 69 0
70 59 0
70 -69 0
-59 69 -70 0
71 55 0
71 -70 0
-55 70 -71 0
72 -4 0
72 -26 0
4 26 -72 0
-73 72 0
-73 -2 0
-72 2 73 0
71 73 -74 0
-71 -73 -74 0
71 -73 74 0
-71 73 74 0
75 53 0
75 -74 0
-53 74 -75 0
76 -28 0
76 6 0
28 -6 -76 0
-77 10 0
-77 -28 0
-10 28 77 0
78 76 0
78 77 0
-76 -77 -78 0
75 -78 -79 0
-75 78 -79 0
75 78 79 0
-75 -78 79 0
80 -51 0
80 -79 0
51 79 -80 0
81 -64 0
81 -28 0
64 28 -81 0
-31 -45 -82 0
31 45 -82 0
-31 45 82 0
31 -45 82 0
-23 -14 -83 0
23 14 -83 0
-23 14 83 0
23 -14 83 0
-82 83 -84 0
82 -83 -84 0
-82 -83 84 0
82 83 84 0
85 -81 0
85 84 0
81 -84 -85 0
80 -85 -86 0
-80 85 -86 0
80 85 86 0
-80 -85 86 0
9 -53 0
53 -62 64 -65 0
82 -73 -54 0
-72 -2 0
-15 -36 -33 -76 0
-12 8 -69 0
55 13 0
-16 -31 55 -78 12 0
-35 -41 0
78 61 0
85 45 10 -8 0
-80 -84 0
64 -45 50 0
-66 -26 39 0
80 -76 77 -79 0
80 67 -38 0
10 -64 32 12 -31 27 0
-19 54 -17 83 0
57 27 36 0
82 -69 25 0
-22 57 85 0
26 -35 -8 62 -36 0
-1 -35 -37 39 76 0
-53 30 37 -50 -49 -10 0
-59 50 0
57 -56 -70 49 0
-20 13 22 -11 0
48 -36 -73 -33 4 0
1 -30 -80 55 31 0
1 -84 -24 -9 0
22 1 0
-39 7 -5 3 17 -84 0
-46 77 24 -3 -74 0
78 -83 40 -10 0
75 60 -30 0
86 0
